     Program PWSCF v.6.8 starts on 26Nov2021 at  6:32:37

     R & G space division:  proc/nbgrp/npool/nimage =       4

     Waiting for input...
     Reading input from standard input

     Current dimensions of program PWSCF are:
     Max number of different atomic species (ntypx) = 10
     Max number of k-points (npk) =  40000
     Max angular momentum in pseudopotentials (lmaxx) =  4
 end of file reached, tag PP_GIPAW_ORBITALS not found
 end of file reached, closing tag not found
 end of file reached, tag PP_GIPAW_VLOCAL not found
 end of file reached, closing tag not found
 end of file reached, closing tag not found
     file Sb.pbe-n-rrkjus_psl.1.0.0.UPF: wavefunction(s)  5S renormalized
     Message from routine setup:
     using ibrav=0 with symmetry is DISCOURAGED, use correct ibrav instead

     Using Slab Decomposition

     Title:
     Li3Sb

     bravais-lattice index     =            0
     lattice parameter (alat)  =       8.7681  a.u.
     unit-cell volume          =     476.6465 (a.u.)^3
     number of atoms/cell      =            4
     number of atomic types    =            2
     number of electrons       =        14.00
     number of Kohn-Sham states=           16
     kinetic-energy cutoff     =      80.0000  Ry
     charge density cutoff     =     640.0000  Ry
     scf convergence threshold =      1.0E-08
     mixing beta               =       0.7000
     number of iterations used =            8  plain     mixing
     energy convergence thresh.=      1.0E-06
     force convergence thresh. =      1.0E-05
     press convergence thresh. =      1.0E-01
     Exchange-correlation= PBE
                           (   1   4   3   4   0   0   0)
     nstep                     =           50

     celldm(1)=   8.768066  celldm(2)=   0.000000  celldm(3)=   0.000000
     celldm(4)=   0.000000  celldm(5)=   0.000000  celldm(6)=   0.000000

     crystal axes: (cart. coord. in units of alat)
               a(1) = (   0.707107   0.000000   0.707107 )
               a(2) = (   0.707107   0.707107   0.000000 )
               a(3) = (   0.000000   0.707107   0.707107 )

     reciprocal axes: (cart. coord. in units 2 pi/alat)
               b(1) = (  0.707107 -0.707107  0.707107 )
               b(2) = (  0.707107  0.707107 -0.707107 )
               b(3) = ( -0.707107  0.707107  0.707107 )

     PseudoPot. # 1 for Li read from file:
     /home/rajeshprashanth/pseudo/Li.pbe-sl-rrkjus_psl.1.0.0.UPF
     MD5 check sum: 0e11565407bfb6e9e22218db3032bef3
     Pseudo is Ultrasoft, Zval =  3.0
     Generated using &quot;atomic&quot; code by A. Dal Corso  v.6.3MaX
     Using radial grid of 1017 points,  4 beta functions with:
                l(1) =   0
                l(2) =   0
                l(3) =   1
                l(4) =   1
     Q(r) pseudized with 0 coefficients

     PseudoPot. # 2 for Sb read from file:
     /home/rajeshprashanth/pseudo/Sb.pbe-n-rrkjus_psl.1.0.0.UPF
     MD5 check sum: 281bbf571873a5188dff0d70b91cdad0
     Pseudo is Ultrasoft + core correction, Zval =  5.0
     Generated using &quot;atomic&quot; code by A. Dal Corso  v.6.3MaX
     Using radial grid of 1243 points,  6 beta functions with:
                l(1) =   0
                l(2) =   0
                l(3) =   1
                l(4) =   1
                l(5) =   2
                l(6) =   2
     Q(r) pseudized with 0 coefficients

     atomic species   valence    mass     pseudopotential
        Li             3.00     6.94100     Li( 1.00)
        Sb             5.00   121.76000     Sb( 1.00)

     48 Sym. Ops., with inversion, found

                                    s                        frac. trans.

      isym =  1     identity

 cryst.   s( 1) = (     1          0          0      )
                  (     0          1          0      )
                  (     0          0          1      )

 cart.    s( 1) = (  1.0000000  0.0000000  0.0000000 )
                  (  0.0000000  1.0000000  0.0000000 )
                  (  0.0000000  0.0000000  1.0000000 )

      isym =  2     180 deg rotation - cart. axis [0,0,1]

[...]

 cryst.   s(10) = (    -1          0          0      )
                  (     0          0         -1      )
                  (     0         -1          0      )

 cart.    s(10) = (  0.0000000  0.0000000 -1.0000000 )
                  (  0.0000000 -1.0000000  0.0000000 )
                  ( -1.0000000  0.0000000  0.0000000 )

[...]

      isym = 25     inversion

[...]

      isym = 26     inv. 180 deg rotation - cart. axis [0,0,1]

[...]

   Cartesian axes

     site n.     atom                  positions (alat units)
         1           Li  tau(   1) = (   0.7071068   0.7071068   0.7071068  )
         2           Li  tau(   2) = (   1.0606602   1.0606602   1.0606602  )
         3           Li  tau(   3) = (   0.3535534   0.3535534   0.3535534  )
         4           Sb  tau(   4) = (   0.0000000   0.0000000   0.0000000  )

   Crystallographic axes

     site n.     atom                  positions (cryst. coord.)
         1           Li  tau(   1) = (  0.5000000  0.5000000  0.5000000  )
         2           Li  tau(   2) = (  0.7500000  0.7500000  0.7500000  )
         3           Li  tau(   3) = (  0.2500000  0.2500000  0.2500000  )
         4           Sb  tau(   4) = (  0.0000000  0.0000000  0.0000000  )

     number of k points=    20  Marzari-Vanderbilt smearing, width (Ry)=  0.0200
                       cart. coord. in units 2pi/alat
        k(    1) = (   0.0000000   0.0000000   0.0000000), wk =   0.0058309
        k(    2) = (  -0.1010153   0.1010153   0.1010153), wk =   0.0466472
        k(    3) = (  -0.2020305   0.2020305   0.2020305), wk =   0.0466472
        k(    4) = (  -0.3030458   0.3030458   0.3030458), wk =   0.0466472
        k(    5) = (   0.0000000   0.2020305   0.0000000), wk =   0.0349854
        k(    6) = (  -0.1010153   0.3030458   0.1010153), wk =   0.1399417
        k(    7) = (  -0.2020305   0.4040610   0.2020305), wk =   0.1399417
        k(    8) = (   0.4040610  -0.2020305  -0.4040610), wk =   0.1399417
        k(    9) = (   0.3030458  -0.1010153  -0.3030458), wk =   0.1399417
        k(   10) = (   0.2020305  -0.0000000  -0.2020305), wk =   0.0699708
        k(   11) = (   0.0000000   0.4040610   0.0000000), wk =   0.0349854
        k(   12) = (  -0.1010153   0.5050763   0.1010153), wk =   0.1399417
        k(   13) = (   0.5050763  -0.1010153  -0.5050763), wk =   0.1399417
        k(   14) = (   0.4040610   0.0000000  -0.4040610), wk =   0.0699708
        k(   15) = (   0.0000000   0.6060915   0.0000000), wk =   0.0349854
        k(   16) = (   0.6060915   0.0000000  -0.6060915), wk =   0.0699708
        k(   17) = (   0.0000000   0.4040610   0.2020305), wk =   0.1399417
        k(   18) = (   0.6060915  -0.2020305  -0.4040610), wk =   0.2798834
        k(   19) = (   0.7071068  -0.1010153  -0.5050763), wk =   0.1399417
        k(   20) = (   0.6060915   0.0000000  -0.4040610), wk =   0.1399417

                       cryst. coord.
        k(    1) = (   0.0000000   0.0000000   0.0000000), wk =   0.0058309
        k(    2) = (   0.0000000   0.0000000   0.1428571), wk =   0.0466472
        k(    3) = (   0.0000000   0.0000000   0.2857143), wk =   0.0466472
        k(    4) = (   0.0000000   0.0000000   0.4285714), wk =   0.0466472
        k(    5) = (   0.0000000   0.1428571   0.1428571), wk =   0.0349854
        k(    6) = (   0.0000000   0.1428571   0.2857143), wk =   0.1399417
        k(    7) = (   0.0000000   0.1428571   0.4285714), wk =   0.1399417
        k(    8) = (   0.0000000   0.1428571  -0.4285714), wk =   0.1399417
        k(    9) = (   0.0000000   0.1428571  -0.2857143), wk =   0.1399417
        k(   10) = (   0.0000000   0.1428571  -0.1428571), wk =   0.0699708
        k(   11) = (   0.0000000   0.2857143   0.2857143), wk =   0.0349854
        k(   12) = (   0.0000000   0.2857143   0.4285714), wk =   0.1399417
        k(   13) = (   0.0000000   0.2857143  -0.4285714), wk =   0.1399417
        k(   14) = (   0.0000000   0.2857143  -0.2857143), wk =   0.0699708
        k(   15) = (   0.0000000   0.4285714   0.4285714), wk =   0.0349854
        k(   16) = (   0.0000000   0.4285714  -0.4285714), wk =   0.0699708
        k(   17) = (   0.1428571   0.2857143   0.4285714), wk =   0.1399417
        k(   18) = (   0.1428571   0.2857143  -0.4285714), wk =   0.2798834
        k(   19) = (   0.1428571   0.4285714  -0.4285714), wk =   0.1399417
        k(   20) = (   0.1428571   0.4285714  -0.2857143), wk =   0.1399417

     Initial potential from superposition of free atoms

     starting charge   13.98555, renormalised to   14.00000
     Starting wfcs are   19 randomized atomic wfcs

     Self-consistent Calculation

     iteration #  1     ecut=    80.00 Ry     beta= 0.70
     CG style diagonalization

     ethr =  1.00E-02,  avg # of iterations =  4.0

     Threshold (ethr) on eigenvalues was too large:
     Diagonalizing with lowered threshold

     CG style diagonalization

[...]

     WARNING: integrated charge=    14.00086251, expected=    14.00000000

     total energy              =     -64.61094189 Ry
     estimated scf accuracy    <       0.02340871 Ry

[...]

     End of self-consistent calculation

          k = 0.0000 0.0000 0.0000 (  5769 PWs)   bands (ev):

   -42.9291 -42.0567 -42.0483  -5.2634   4.0099   4.0099   4.0099   6.2670
     6.9748   6.9748   6.9748   9.0226   9.0227   9.0227  11.2012  13.0199

     occupation numbers
     1.0000   1.0000   1.0000   1.0000   1.0346   1.0346   1.0346   0.0000
     0.0000   0.0000   0.0000   0.0000   0.0000   0.0000   0.0000   0.0000

          k =-0.1010 0.1010 0.1010 (  5775 PWs)   bands (ev):

[...]

     the Fermi energy is     4.5755 ev

[...]

!    total energy              =     -64.62167661 Ry
     estimated scf accuracy    <          3.2E-09 Ry
     smearing contrib. (-TS)   =       0.00006754 Ry
     internal energy E=F+TS    =     -64.62174414 Ry

     The total energy is F=E-TS. E is the sum of the following terms:
     one-electron contribution =     -23.44181582 Ry
     hartree contribution      =      11.68313163 Ry
     xc contribution           =     -23.20916541 Ry
     ewald contribution        =     -29.65389454 Ry

     convergence has been achieved in  13 iterations

     Forces acting on atoms (cartesian axes, Ry/au):

     atom    1 type  1   force =     0.00000000    0.00000000    0.00000000
     atom    2 type  1   force =     0.00000000    0.00000000    0.00000000
     atom    3 type  1   force =     0.00000000    0.00000000    0.00000000
     atom    4 type  2   force =     0.00000000   -0.00000000   -0.00000000
     The non-local contrib.  to forces
     atom    1 type  1   force =     0.00000000   -0.00000000   -0.00000000
     atom    2 type  1   force =    -0.00000000    0.00000000    0.00000000
     atom    3 type  1   force =     0.00000000    0.00000000    0.00000000
     atom    4 type  2   force =    -0.00000000    0.00000000    0.00000000
     The ionic contribution  to forces
     atom    1 type  1   force =    -0.00000000   -0.00000000   -0.00000000
     atom    2 type  1   force =     0.00000000    0.00000000    0.00000000
[...]

     enthalpy           old  =     -64.6216766077 Ry
     enthalpy           new  =     -64.6216803868 Ry

     CASE: enthalpy          _new < enthalpy          _old

[...]

     number of scf cycles    =   5
     number of bfgs steps    =   4

     enthalpy           old  =     -64.6216868898 Ry
     enthalpy           new  =     -64.6216887269 Ry

     CASE: enthalpy          _new < enthalpy          _old

     small trust_radius: resetting bfgs history

     new trust radius        =       0.0000007425 bohr
     new conv_thr            =            1.0E-10 Ry

     new unit-cell volume =    475.66095 a.u.^3 (    70.48568 Ang^3 )
     density =      3.35905 g/cm^3

[...]

ATOMIC_POSITIONS (crystal)
Li            0.5000000000        0.5000000000        0.5000000000
Li            0.7500000000        0.7500000000        0.7500000000
Li            0.2500000000        0.2500000000        0.2500000000
Sb            0.0000000000        0.0000000000       -0.0000000000

     Writing output data file ./Li3Sb/pwscf.save/
     NEW-OLD atomic charge density approx. for the potential
     extrapolated charge   14.00402, renormalised to   14.00000

[...]

     Threshold (ethr) on eigenvalues was too large:
     Diagonalizing with lowered threshold

     CG style diagonalization

[...]

     Energy error            =      7.7E-08 Ry
     Gradient error          =      1.0E-29 Ry/Bohr
     Cell gradient error     =      2.9E-04 kbar

     bfgs converged in   6 scf cycles and   5 bfgs steps
     (criteria: energy <  1.0E-06 Ry, force <  1.0E-05Ry/Bohr, cell <  1.0E-01kbar)

     End of BFGS Geometry Optimization

     Final enthalpy           =     -64.6216886495 Ry

     File ./Li3Sb/pwscf.bfgs deleted, as requested
Begin final coordinates
     new unit-cell volume =    475.66095 a.u.^3 (    70.48568 Ang^3 )
     density =      3.35905 g/cm^3

CELL_PARAMETERS (angstrom)
   3.278614096   0.000000000   3.278614096
   3.278614096   3.278614096  -0.000000000
  -0.000000000   3.278614096   3.278614096

ATOMIC_POSITIONS (crystal)
Li            0.5000000000        0.5000000000        0.5000000000
Li            0.7500000000        0.7500000000        0.7500000000
Li            0.2500000000        0.2500000000        0.2500000000
Sb            0.0000000000        0.0000000000       -0.0000000000
End final coordinates

     Writing output data file ./Li3Sb/pwscf.save/

     Final scf calculation at the relaxed structure.
     The G-vectors are recalculated for the final unit cell
     Results may differ from those at the preceding step.

     Using Slab Decomposition

     Title:
     Li3Sb

     bravais-lattice index     =            0
     lattice parameter (alat)  =       8.7681  a.u.
     unit-cell volume          =     475.6610 (a.u.)^3
     number of atoms/cell      =            4
     number of atomic types    =            2
     number of electrons       =        14.00
     number of Kohn-Sham states=           16
     kinetic-energy cutoff     =      80.0000  Ry
     charge density cutoff     =     640.0000  Ry
     scf convergence threshold =      1.0E-10
     mixing beta               =       0.7000
     number of iterations used =            8  plain     mixing
     press convergence thresh. =      1.0E-01
     Exchange-correlation= PBE
                           (   1   4   3   4   0   0   0)

     celldm(1)=   8.768066  celldm(2)=   0.000000  celldm(3)=   0.000000
     celldm(4)=   0.000000  celldm(5)=   0.000000  celldm(6)=   0.000000

     crystal axes: (cart. coord. in units of alat)
               a(1) = (   0.706619   0.000000   0.706619 )
               a(2) = (   0.706619   0.706619  -0.000000 )
               a(3) = (  -0.000000   0.706619   0.706619 )

     reciprocal axes: (cart. coord. in units 2 pi/alat)
               b(1) = (  0.707595 -0.707595  0.707595 )
               b(2) = (  0.707595  0.707595 -0.707595 )
               b(3) = ( -0.707595  0.707595  0.707595 )

     PseudoPot. # 1 for Li read from file:
     /home/rajeshprashanth/pseudo/Li.pbe-sl-rrkjus_psl.1.0.0.UPF
     MD5 check sum: 0e11565407bfb6e9e22218db3032bef3
     Pseudo is Ultrasoft, Zval =  3.0
     Generated using &quot;atomic&quot; code by A. Dal Corso  v.6.3MaX
     Using radial grid of 1017 points,  4 beta functions with:
                l(1) =   0
                l(2) =   0
                l(3) =   1
                l(4) =   1
     Q(r) pseudized with 0 coefficients

     PseudoPot. # 2 for Sb read from file:
     /home/rajeshprashanth/pseudo/Sb.pbe-n-rrkjus_psl.1.0.0.UPF
     MD5 check sum: 281bbf571873a5188dff0d70b91cdad0
     Pseudo is Ultrasoft + core correction, Zval =  5.0
     Generated using &quot;atomic&quot; code by A. Dal Corso  v.6.3MaX
     Using radial grid of 1243 points,  6 beta functions with:
                l(1) =   0
                l(2) =   0
                l(3) =   1
                l(4) =   1
                l(5) =   2
                l(6) =   2
     Q(r) pseudized with 0 coefficients

     atomic species   valence    mass     pseudopotential
        Li             3.00     6.94100     Li( 1.00)
        Sb             5.00   121.76000     Sb( 1.00)

     48 Sym. Ops., with inversion, found

                                    s                        frac. trans.

      isym =  1     identity

[...]

 cryst.   s( 9) = (     1          0          0      )
                  (     1         -1          0      )
                  (     1          0         -1      )

 cart.    s( 9) = (  0.0000000  0.0000000  1.0000000 )
                  (  0.0000000 -1.0000000  0.0000000 )
                  (  1.0000000  0.0000000  0.0000000 )

[...]

      isym = 24     120 deg rotation - cart. axis [-1,-1,1]

[...]

      isym = 25     inversion

[...]

      isym = 48     inv. 120 deg rotation - cart. axis [-1,-1,1]

 cryst.   s(48) = (     1          0         -1      )
                  (     1         -1          0      )
                  (     1          0          0      )

 cart.    s(48) = (  0.0000000  0.0000000  1.0000000 )
                  ( -1.0000000  0.0000000  0.0000000 )
                  (  0.0000000  1.0000000  0.0000000 )

   Cartesian axes

     site n.     atom                  positions (alat units)
         1           Li  tau(   1) = (   0.7066191   0.7066191   0.7066191  )
         2           Li  tau(   2) = (   1.0599286   1.0599286   1.0599286  )
         3           Li  tau(   3) = (   0.3533095   0.3533095   0.3533095  )
         4           Sb  tau(   4) = (   0.0000000  -0.0000000  -0.0000000  )

   Crystallographic axes

     site n.     atom                  positions (cryst. coord.)
         1           Li  tau(   1) = (  0.5000000  0.5000000  0.5000000  )
         2           Li  tau(   2) = (  0.7500000  0.7500000  0.7500000  )
         3           Li  tau(   3) = (  0.2500000  0.2500000  0.2500000  )
         4           Sb  tau(   4) = (  0.0000000  0.0000000 -0.0000000  )

     number of k points=    20  Marzari-Vanderbilt smearing, width (Ry)=  0.0200
                       cart. coord. in units 2pi/alat
        k(    1) = (   0.0000000   0.0000000   0.0000000), wk =   0.0058309
        k(    2) = (  -0.1010850   0.1010850   0.1010850), wk =   0.0466472
        k(    3) = (  -0.2021700   0.2021700   0.2021700), wk =   0.0466472
        k(    4) = (  -0.3032549   0.3032549   0.3032549), wk =   0.0466472
        k(    5) = (   0.0000000   0.2021700  -0.0000000), wk =   0.0349854
        k(    6) = (  -0.1010850   0.3032549   0.1010850), wk =   0.1399417
        k(    7) = (  -0.2021700   0.4043399   0.2021700), wk =   0.1399417
        k(    8) = (   0.4043399  -0.2021700  -0.4043399), wk =   0.1399417
        k(    9) = (   0.3032549  -0.1010850  -0.3032549), wk =   0.1399417
        k(   10) = (   0.2021700  -0.0000000  -0.2021700), wk =   0.0699708
        k(   11) = (   0.0000000   0.4043399  -0.0000000), wk =   0.0349854
        k(   12) = (  -0.1010850   0.5054249   0.1010850), wk =   0.1399417
        k(   13) = (   0.5054249  -0.1010850  -0.5054249), wk =   0.1399417
        k(   14) = (   0.4043399   0.0000000  -0.4043399), wk =   0.0699708
        k(   15) = (   0.0000000   0.6065099  -0.0000000), wk =   0.0349854
        k(   16) = (   0.6065099   0.0000000  -0.6065099), wk =   0.0699708
        k(   17) = (   0.0000000   0.4043399   0.2021700), wk =   0.1399417
        k(   18) = (   0.6065099  -0.2021700  -0.4043399), wk =   0.2798834
        k(   19) = (   0.7075948  -0.1010850  -0.5054249), wk =   0.1399417
        k(   20) = (   0.6065099   0.0000000  -0.4043399), wk =   0.1399417

                       cryst. coord.
        k(    1) = (   0.0000000   0.0000000   0.0000000), wk =   0.0058309
        k(    2) = (   0.0000000  -0.0000000   0.1428571), wk =   0.0466472
        k(    3) = (   0.0000000  -0.0000000   0.2857143), wk =   0.0466472
        k(    4) = (   0.0000000  -0.0000000   0.4285714), wk =   0.0466472
        k(    5) = (   0.0000000   0.1428571   0.1428571), wk =   0.0349854
        k(    6) = (   0.0000000   0.1428571   0.2857143), wk =   0.1399417
        k(    7) = (   0.0000000   0.1428571   0.4285714), wk =   0.1399417
        k(    8) = (   0.0000000   0.1428571  -0.4285714), wk =   0.1399417
        k(    9) = (   0.0000000   0.1428571  -0.2857143), wk =   0.1399417
        k(   10) = (   0.0000000   0.1428571  -0.1428571), wk =   0.0699708
        k(   11) = (   0.0000000   0.2857143   0.2857143), wk =   0.0349854
        k(   12) = (   0.0000000   0.2857143   0.4285714), wk =   0.1399417
        k(   13) = (   0.0000000   0.2857143  -0.4285714), wk =   0.1399417
        k(   14) = (   0.0000000   0.2857143  -0.2857143), wk =   0.0699708
        k(   15) = (   0.0000000   0.4285714   0.4285714), wk =   0.0349854
        k(   16) = (   0.0000000   0.4285714  -0.4285714), wk =   0.0699708
        k(   17) = (   0.1428571   0.2857143   0.4285714), wk =   0.1399417
        k(   18) = (   0.1428571   0.2857143  -0.4285714), wk =   0.2798834
        k(   19) = (   0.1428571   0.4285714  -0.4285714), wk =   0.1399417
        k(   20) = (   0.1428571   0.4285714  -0.2857143), wk =   0.1399417

     Initial potential from superposition of free atoms

     starting charge   13.98555, renormalised to   14.00000
     Starting wfcs are   19 randomized atomic wfcs

     Self-consistent Calculation

[...]

     total energy              =     -64.62168852 Ry
     estimated scf accuracy    <          1.1E-10 Ry

     iteration # 25     ecut=    80.00 Ry     beta= 0.70
     CG style diagonalization

     ethr =  7.74E-13,  avg # of iterations =  3.0

     End of self-consistent calculation

[...]

          k =-0.1011 0.5054 0.1011 (  5730 PWs)   bands (ev):

[...]

          k = 0.6065 0.0000-0.4043 (  5740 PWs)   bands (ev):

[...]

     occupation numbers
     1.0000   1.0000   1.0000   1.0000   1.0000   1.0000   1.0000   0.0000
     0.0000   0.0000   0.0000   0.0000   0.0000   0.0000   0.0000   0.0000

     the Fermi energy is     4.5911 ev

     WARNING: integrated charge=    14.00402589, expected=    14.00000000

!    total energy              =     -64.62168851 Ry
     estimated scf accuracy    <          3.7E-13 Ry
     smearing contrib. (-TS)   =       0.00006704 Ry
     internal energy E=F+TS    =     -64.62175555 Ry

     The total energy is F=E-TS. E is the sum of the following terms:
     one-electron contribution =     -23.41341464 Ry
     hartree contribution      =      11.67721535 Ry
     xc contribution           =     -23.21119455 Ry
     ewald contribution        =     -29.67436171 Ry

     convergence has been achieved in  25 iterations

     Forces acting on atoms (cartesian axes, Ry/au):

     atom    1 type  1   force =     0.00000000   -0.00000000   -0.00000000
     atom    2 type  1   force =    -0.00000000    0.00000000   -0.00000000
     atom    3 type  1   force =     0.00000000   -0.00000000    0.00000000
     atom    4 type  2   force =    -0.00000000    0.00000000   -0.00000000
     The non-local contrib.  to forces
     atom    1 type  1   force =     0.00000000    0.00000000    0.00000000
     atom    2 type  1   force =     0.00000000   -0.00000000   -0.00000000
     atom    3 type  1   force =    -0.00000000   -0.00000000    0.00000000
     atom    4 type  2   force =     0.00000000    0.00000000    0.00000000
     The ionic contribution  to forces
     atom    1 type  1   force =     0.00000000    0.00000000   -0.00000000
     atom    2 type  1   force =    -0.00000000   -0.00000000   -0.00000000
     atom    3 type  1   force =     0.00000000   -0.00000000    0.00000000
     atom    4 type  2   force =     0.00000000    0.00000000    0.00000000
     The local contribution  to forces
     atom    1 type  1   force =    -0.00000000   -0.00000000   -0.00000000
     atom    2 type  1   force =    -0.00000000   -0.00000000   -0.00000000
     atom    3 type  1   force =    -0.00000000   -0.00000000   -0.00000000
     atom    4 type  2   force =    -0.00000000   -0.00000000    0.00000000
     The core correction contribution to forces
     atom    1 type  1   force =     0.00000000    0.00000000    0.00000000
     atom    2 type  1   force =     0.00000000    0.00000000    0.00000000
     atom    3 type  1   force =     0.00000000    0.00000000    0.00000000
     atom    4 type  2   force =    -0.00000000   -0.00000000   -0.00000000
     The Hubbard contrib.    to forces
     atom    1 type  1   force =     0.00000000    0.00000000    0.00000000
     atom    2 type  1   force =     0.00000000    0.00000000    0.00000000
     atom    3 type  1   force =     0.00000000    0.00000000    0.00000000
     atom    4 type  2   force =     0.00000000    0.00000000    0.00000000
     The SCF correction term to forces
     atom    1 type  1   force =     0.00000000   -0.00000000    0.00000000
     atom    2 type  1   force =     0.00000000   -0.00000000    0.00000000
     atom    3 type  1   force =    -0.00000000    0.00000000    0.00000000
     atom    4 type  2   force =     0.00000000    0.00000000   -0.00000000

     Total force =     0.000000     Total SCF correction =     0.000000

     Computing stress (Cartesian axis) and pressure

          total   stress  (Ry/bohr**3)                   (kbar)     P=       -0.00
  -0.00000003  -0.00000000   0.00000000           -0.00       -0.00        0.00
  -0.00000000  -0.00000003  -0.00000000           -0.00       -0.00       -0.00
  -0.00000000  -0.00000000  -0.00000003           -0.00       -0.00       -0.00

     kinetic stress (kbar)   2913.35     -0.00     -0.00
                                0.00   2913.35     -0.00
                               -0.00      0.00   2913.35

     local   stress (kbar)   -624.09      0.00      0.00
                                0.00   -624.09      0.00
                                0.00      0.00   -624.09

     nonloc. stress (kbar)   1143.81      0.00     -0.00
                                0.00   1143.81      0.00
                               -0.00      0.00   1143.81

     hartree stress (kbar)   1203.78      0.00     -0.00
                                0.00   1203.78      0.00
                               -0.00      0.00   1203.78

     exc-cor stress (kbar)   1328.26     -0.00     -0.00
                               -0.00   1328.26      0.00
                               -0.00      0.00   1328.26

     corecor stress (kbar)  -2906.04      0.00     -0.00
                                0.00  -2906.04     -0.00
                               -0.00     -0.00  -2906.04

     ewald   stress (kbar)  -3059.08     -0.00      0.00
                               -0.00  -3059.08     -0.00
                                0.00     -0.00  -3059.08

     hubbard stress (kbar)      0.00      0.00      0.00
                                0.00      0.00      0.00
                                0.00      0.00      0.00

     DFT-D   stress (kbar)      0.00      0.00      0.00
                                0.00      0.00      0.00
                                0.00      0.00      0.00

     XDM     stress (kbar)      0.00      0.00      0.00
                                0.00      0.00      0.00
                                0.00      0.00      0.00

     dft-nl  stress (kbar)      0.00      0.00      0.00
                                0.00      0.00      0.00
                                0.00      0.00      0.00

     TS-vdW  stress (kbar)      0.00      0.00      0.00
                                0.00      0.00      0.00
                                0.00      0.00      0.00

[...]

                                0.00      0.00      0.00

     Writing output data file ./Li3Sb/pwscf.save/

     General routines

     Parallel routines

   This run was terminated on:   6:35: 5  26Nov2021

   JOB DONE.